HUN,8,6,616
4,24,0,7,2,5,5,30,3,29,1,7
1,17,2,23,4,12,0,9,5,5,3,2
0,23,1,3,2,15,3,25,5,18,4,19
4,21,3,14,0,11,5,3,1,15,2,22
5,9,3,2,0,18,2,26,1,16,4,21
2,5,5,19,0,14,4,8,3,13,1,20
2,28,3,26,1,1,0,16,5,22,4,8
5,28,3,28,1,30,2,25,0,18,4,11
